data;
param n:=100;
param w:=1 243 2 -223 3 -133 4 69 5 321 6 330 7 57 8 48 9 419 10 -11 11 280 12 16 13 204 14 -37 15 376 16 441 17 25 18 93 19 -312 20 -29 21 -150 22 -281 23 263 24 -270 25 462 26 65 27 242 28 158 29 470 30 322 31 -149 32 415 33 -296 34 -178 35 -197 36 -75 37 160 38 -451 39 -5 40 -208 41 -463 42 -71 43 347 44 -277 45 -65 46 -252 47 -347 48 -117 49 335 50 -249 51 -223 52 -329 53 -160 54 33 55 30 56 119 57 390 58 179 59 -498 60 -85 61 -197 62 -481 63 -49 64 89 65 -151 66 -324 67 308 68 420 69 397 70 -216 71 275 72 471 73 468 74 15 75 -354 76 46 77 431 78 -1 79 442 80 -6 81 -479 82 -460 83 -305 84 -285 85 -108 86 -493 87 -501 88 285 89 74 90 -266 91 -434 92 371 93 296 94 232 95 279 96 -326 97 -420 98 -19 99 -198 100 403;
